50
    1   301   281
    2   448   442
    3   310   356
    4   425   425
    5   240   214
    6   251   263
    7    49    75
    8    39    41
    9   323   319
   10   269   312
   11   366   325
   12   265   237
   13   346   310
   14   348   386
   15   332   306
   16   326   346
   17   176   207
   18   163   118
   19   172   179
   20   174   208
   21    82    51
   22   495   453
   23   215   238
   24   458   500
   25   192   182
   26   438   470
   27   284   324
   28   164   157
   29   268   315
   30   535   497
   31   379   419
   32   195   177
   33   244   285
   34   372   335
   35   271   306
   36    42    15
   37    90    98
   38   144   114
   39   184   202
   40   152   180
   41   347   353
   42    25    63
   43   461   448
   44   209   159
   45   154   125
   46   158   156
   47   444   471
   48   400   415
   49   463   481
   50   216   202
2256
